37999 41087 
35990 41896 
36052 41869 
38567 40827 
36924 41615 
35814 41936 
36430 41780 
36491 41728 
35428 42053 
36168 41816 
36244 41802 
36897 41631 
37818 41121 
37492 41355 
37201 41481 
37465 41371 
38386 40861 
38248 40963 
37843 41107 
38359 40877 
39063 40420 
38925 40522 
